NAME : CON8-3.8110642.tour
COMMENT : Cost = 0_8110642
COMMENT : Found by LKH [Keld Helsgaun] Sat Sep  9 21:17:39 2017
TYPE : TOUR
DIMENSION : 60
TOUR_SECTION
1
24
22
29
45
52
12
41
42
30
25
58
26
43
47
17
15
4
10
35
55
49
38
11
32
27
8
20
21
51
14
56
28
3
60
39
34
6
19
46
44
54
18
50
40
5
53
33
2
36
57
7
9
37
59
16
48
13
23
31
-1
EOF
